Cost: 455
0-32-9-39-10-0
0-34-46-8-19-35-7-0
0-6-2-30-4-0
0-51-3-44-24-49-23-33-0
0-48-47-21-28-22-1-0
0-29-37-20-15-13-52-0
0-17-40-12-26-0
Cost: 455
0-48-47-21-28-22-1-0
0-6-2-30-4-0
0-26-12-40-17-0
0-29-37-20-15-13-52-0
0-34-46-8-19-35-7-0
0-51-3-44-24-49-23-33-0
0-32-9-39-10-0
Cost: 455
0-10-39-9-32-0
0-48-47-21-28-22-1-0
0-51-3-44-24-49-23-33-0
0-7-35-19-8-46-34-0
0-6-2-30-4-0
0-26-12-40-17-0
0-52-13-15-20-37-29-0
Cost: 457
0-10-39-9-32-0
0-6-1-22-28-2-0
0-7-35-19-8-46-34-0
0-30-21-47-48-4-0
0-33-23-49-24-44-3-51-0
0-52-13-15-20-37-29-0
0-26-12-40-17-0
Cost: 455
0-51-3-44-24-49-23-33-0
0-34-46-8-19-35-7-0
0-29-37-20-15-13-52-0
0-32-9-39-10-0
0-1-22-28-21-47-48-0
0-6-2-30-4-0
0-26-12-40-17-0
Cost: 455
0-29-37-20-15-13-52-0
0-34-46-8-19-35-7-0
0-48-47-21-28-22-1-0
0-33-23-49-24-44-3-51-0
0-32-9-39-10-0
0-6-2-30-4-0
0-26-12-40-17-0
Cost: 455
0-29-37-20-15-13-52-0
0-48-47-21-28-22-1-0
0-7-35-19-8-46-34-0
0-10-39-9-32-0
0-51-3-44-24-49-23-33-0
0-26-12-40-17-0
0-6-2-30-4-0
Cost: 455
0-29-37-20-15-13-52-0
0-48-47-21-28-22-1-0
0-7-35-19-8-46-34-0
0-10-39-9-32-0
0-51-3-44-24-49-23-33-0
0-26-12-40-17-0
0-6-2-30-4-0
Cost: 455
0-29-37-20-15-13-52-0
0-48-47-21-28-22-1-0
0-7-35-19-8-46-34-0
0-10-39-9-32-0
0-51-3-44-24-49-23-33-0
0-26-12-40-17-0
0-6-2-30-4-0
Cost: 455
0-51-3-44-24-49-23-33-0
0-34-46-8-19-35-7-0
0-26-12-40-17-0
0-29-37-20-15-13-52-0
0-1-22-28-21-47-48-0
0-6-2-30-4-0
0-10-39-9-32-0
Cost: 455
0-7-35-19-8-46-34-0
0-6-2-30-4-0
0-26-12-40-17-0
0-10-39-9-32-0
0-51-3-44-24-49-23-33-0
0-52-13-15-20-37-29-0
0-48-47-21-28-22-1-0
Cost: 455
0-7-35-19-8-46-34-0
0-6-2-30-4-0
0-26-12-40-17-0
0-10-39-9-32-0
0-51-3-44-24-49-23-33-0
0-52-13-15-20-37-29-0
0-48-47-21-28-22-1-0
Cost: 455
0-7-35-19-8-46-34-0
0-6-2-30-4-0
0-26-12-40-17-0
0-10-39-9-32-0
0-51-3-44-24-49-23-33-0
0-52-13-15-20-37-29-0
0-48-47-21-28-22-1-0
Cost: 457
0-10-39-9-32-0
0-52-13-15-20-37-29-0
0-51-3-44-24-49-23-6-0
0-30-21-47-48-4-0
0-17-40-12-26-0
0-2-28-22-1-33-0
0-34-46-8-19-35-7-0
Cost: 455
0-7-35-19-8-46-34-0
0-6-2-30-4-0
0-26-12-40-17-0
0-10-39-9-32-0
0-51-3-44-24-49-23-33-0
0-52-13-15-20-37-29-0
0-48-47-21-28-22-1-0
Cost: 455
0-7-35-19-8-46-34-0
0-6-2-30-4-0
0-26-12-40-17-0
0-10-39-9-32-0
0-51-3-44-24-49-23-33-0
0-52-13-15-20-37-29-0
0-48-47-21-28-22-1-0
Cost: 455
0-7-35-19-8-46-34-0
0-6-2-30-4-0
0-26-12-40-17-0
0-10-39-9-32-0
0-51-3-44-24-49-23-33-0
0-52-13-15-20-37-29-0
0-48-47-21-28-22-1-0
Cost: 455
0-33-23-49-24-44-3-51-0
0-52-13-15-20-37-29-0
0-10-39-9-32-0
0-17-40-12-26-0
0-4-30-2-6-0
0-1-22-28-21-47-48-0
0-34-46-8-19-35-7-0
Cost: 455
0-10-39-9-32-0
0-51-3-44-24-49-23-33-0
0-26-12-40-17-0
0-48-47-21-28-22-1-0
0-52-13-15-20-37-29-0
0-7-35-19-8-46-34-0
0-4-30-2-6-0
Cost: 455
0-10-39-9-32-0
0-51-3-44-24-49-23-33-0
0-26-12-40-17-0
0-48-47-21-28-22-1-0
0-52-13-15-20-37-29-0
0-7-35-19-8-46-34-0
0-4-30-2-6-0
Cost: 455
0-34-46-8-19-35-7-0
0-17-40-12-26-0
0-1-22-28-21-47-48-0
0-51-3-44-24-49-23-33-0
0-10-39-9-32-0
0-6-2-30-4-0
0-52-13-15-20-37-29-0
Cost: 455
0-34-46-8-19-35-7-0
0-17-40-12-26-0
0-1-22-28-21-47-48-0
0-51-3-44-24-49-23-33-0
0-10-39-9-32-0
0-6-2-30-4-0
0-52-13-15-20-37-29-0
Cost: 455
0-34-46-8-19-35-7-0
0-1-22-28-21-47-48-0
0-32-9-39-10-0
0-4-30-2-6-0
0-33-23-49-24-44-3-51-0
0-17-40-12-26-0
0-52-13-15-20-37-29-0
Cost: 455
0-34-46-8-19-35-7-0
0-17-40-12-26-0
0-1-22-28-21-47-48-0
0-51-3-44-24-49-23-33-0
0-10-39-9-32-0
0-6-2-30-4-0
0-52-13-15-20-37-29-0
Cost: 455
0-33-23-49-24-44-3-51-0
0-52-13-15-20-37-29-0
0-10-39-9-32-0
0-17-40-12-26-0
0-4-30-2-6-0
0-1-22-28-21-47-48-0
0-34-46-8-19-35-7-0
Cost: 455
0-10-39-9-32-0
0-51-3-44-24-49-23-33-0
0-26-12-40-17-0
0-48-47-21-28-22-1-0
0-52-13-15-20-37-29-0
0-7-35-19-8-46-34-0
0-4-30-2-6-0
Cost: 455
0-34-46-8-19-35-7-0
0-48-47-21-28-22-1-0
0-6-2-30-4-0
0-26-12-40-17-0
0-52-13-15-20-37-29-0
0-51-3-44-24-49-23-33-0
0-32-9-39-10-0
Cost: 457
0-2-28-22-1-6-0
0-51-3-44-24-49-23-33-0
0-7-35-19-8-46-34-0
0-30-21-47-48-4-0
0-10-39-9-32-0
0-26-12-40-17-0
0-29-37-20-15-13-52-0
Cost: 461
0-34-52-8-19-35-7-0
0-17-40-12-26-0
0-32-9-39-10-0
0-6-23-49-24-44-3-51-0
0-30-21-47-48-4-0
0-13-15-20-37-29-45-0
0-2-28-22-1-33-0
Cost: 455
0-26-12-40-17-0
0-33-23-49-24-44-3-51-0
0-6-2-30-4-0
0-52-13-15-20-37-29-0
0-7-35-19-8-46-34-0
0-1-22-28-21-47-48-0
0-10-39-9-32-0
Cost: 455
0-32-9-39-10-0
0-29-37-20-15-13-52-0
0-34-46-8-19-35-7-0
0-48-47-21-28-22-1-0
0-26-12-40-17-0
0-51-3-44-24-49-23-33-0
0-6-2-30-4-0
